NAME          
ROWS
 N  OBJ
 L  c1
COLUMNS
    MARKER    'MARKER'                 'INTORG'
    x[1]      c1        613
    x[1]      OBJ       -890
    x[2]      c1        755
    x[2]      OBJ       -503
    x[3]      c1        278
    x[3]      OBJ       -433
    x[4]      c1        605
    x[4]      OBJ       -687
    x[5]      c1        101
    x[5]      OBJ       -586
RHS
    rhs       c1        1176
RANGES
BOUNDS
 BV bounds    x[1]
 BV bounds    x[2]
 BV bounds    x[3]
 BV bounds    x[4]
 BV bounds    x[5]
ENDATA
